cliques=[{12,3,4,5,9,7,6,13,1,10,0,8,11,2},{12,3,4,5,9,7,6,13,1,10,0,8,11,2},{12,3,4,5,9,7,6,13,1,10,0,8,11,2},{12,3,4,5,9,7,6,13,1,10,0,8,11,2},{245,65,4,53,156,185,220,122,273,108,20,143,80,207,134,259,195},{208,93,81,171,5,66,144,157,246,260,274,196},{68,38,209,248,55,135,158,222,6,186,262,22,173,236,110,82},{277,175,223,137,198,211,39,7,112,24,83,237,57,187,147},{12,3,4,5,9,7,6,13,1,10,0,8,11,2},{12,3,4,5,9,7,6,13,1,10,0,8,11,2},{12,3,4,5,9,7,6,13,1,10,0,8,11,2},{12,3,4,5,9,7,6,13,1,10,0,8,11,2},{12,3,4,5,9,7,6,13,1,10,0,8,11,2},{283,31,229,63,269,88,202,13,102,47,153,140,130,255,214},{30,31,29,14,17,23,20,24,22,28,18,19,15,27,16,25,21,26},{30,31,29,14,17,23,20,24,22,28,18,19,15,27,16,25,21,26},{30,31,29,14,17,23,20,24,22,28,18,19,15,27,16,25,21,26},{30,31,29,14,17,23,20,24,22,28,18,19,15,27,16,25,21,26},{30,31,29,14,17,23,20,24,22,28,18,19,15,27,16,25,21,26},{272,79,92,258,184,219,244,36,133,121,155,19,234,170,52,142},{245,65,4,53,156,185,220,122,273,108,20,143,80,207,134,259,195},{30,31,29,14,17,23,20,24,22,28,18,19,15,27,16,25,21,26},{68,38,209,248,55,135,158,222,6,186,262,22,173,236,110,82},{30,31,29,14,17,23,20,24,22,28,18,19,15,27,16,25,21,26},{30,31,29,14,17,23,20,24,22,28,18,19,15,27,16,25,21,26},{30,31,29,14,17,23,20,24,22,28,18,19,15,27,16,25,21,26},{30,31,29,14,17,23,20,24,22,28,18,19,15,27,16,25,21,26},{30,31,29,14,17,23,20,24,22,28,18,19,15,27,16,25,21,26},{30,31,29,14,17,23,20,24,22,28,18,19,15,27,16,25,21,26},{30,31,29,14,17,23,20,24,22,28,18,19,15,27,16,25,21,26},{30,31,29,14,17,23,20,24,22,28,18,19,15,27,16,25,21,26},{30,31,29,14,17,23,20,24,22,28,18,19,15,27,16,25,21,26},{32,38,35,37,43,33,42,36,39,45,47,41,40,44,46,34},{32,38,35,37,43,33,42,36,39,45,47,41,40,44,46,34},{32,38,35,37,43,33,42,36,39,45,47,41,40,44,46,34},{32,38,35,37,43,33,42,36,39,45,47,41,40,44,46,34},{272,79,92,258,184,219,244,36,133,121,155,19,234,170,52,142},{32,38,35,37,43,33,42,36,39,45,47,41,40,44,46,34},{68,38,209,248,55,135,158,222,6,186,262,22,173,236,110,82},{32,38,35,37,43,33,42,36,39,45,47,41,40,44,46,34},{32,38,35,37,43,33,42,36,39,45,47,41,40,44,46,34},{32,38,35,37,43,33,42,36,39,45,47,41,40,44,46,34},{32,38,35,37,43,33,42,36,39,45,47,41,40,44,46,34},{32,38,35,37,43,33,42,36,39,45,47,41,40,44,46,34},{32,38,35,37,43,33,42,36,39,45,47,41,40,44,46,34},{32,38,35,37,43,33,42,36,39,45,47,41,40,44,46,34},{32,38,35,37,43,33,42,36,39,45,47,41,40,44,46,34},{32,38,35,37,43,33,42,36,39,45,47,41,40,44,46,34},{59,54,53,51,55,63,62,49,50,58,61,57,60,52,56,48},{59,54,53,51,55,63,62,49,50,58,61,57,60,52,56,48},{59,54,53,51,55,63,62,49,50,58,61,57,60,52,56,48},{59,54,53,51,55,63,62,49,50,58,61,57,60,52,56,48},{272,79,92,258,184,219,244,36,133,121,155,19,234,170,52,142},{245,65,4,53,156,185,220,122,273,108,20,143,80,207,134,259,195},{59,54,53,51,55,63,62,49,50,58,61,57,60,52,56,48},{68,38,209,248,55,135,158,222,6,186,262,22,173,236,110,82},{59,54,53,51,55,63,62,49,50,58,61,57,60,52,56,48},{59,54,53,51,55,63,62,49,50,58,61,57,60,52,56,48},{59,54,53,51,55,63,62,49,50,58,61,57,60,52,56,48},{59,54,53,51,55,63,62,49,50,58,61,57,60,52,56,48},{59,54,53,51,55,63,62,49,50,58,61,57,60,52,56,48},{59,54,53,51,55,63,62,49,50,58,61,57,60,52,56,48},{59,54,53,51,55,63,62,49,50,58,61,57,60,52,56,48},{59,54,53,51,55,63,62,49,50,58,61,57,60,52,56,48},{68,74,65,64,66,72,70,67,73,69,71},{245,65,4,53,156,185,220,122,273,108,20,143,80,207,134,259,195},{208,93,81,171,5,66,144,157,246,260,274,196},{54,261,275,37,123,67,145,221,197,172,109,247,21,235},{68,38,209,248,55,135,158,222,6,186,262,22,173,236,110,82},{68,74,65,64,66,72,70,67,73,69,71},{68,74,65,64,66,72,70,67,73,69,71},{68,74,65,64,66,72,70,67,73,69,71},{68,74,65,64,66,72,70,67,73,69,71},{68,74,65,64,66,72,70,67,73,69,71},{74,253,29,164,62,100,151,267,45,281,129,87,241,228,200},{166,32,64,14,75,117,131,103,0,180,215,191,230,270,48},{79,81,75,84,88,76,80,83,78,87,86,85,77,82},{205,233,243,17,257,50,106,182,168,90,217,119,77,2},{3,194,35,51,154,206,183,132,18,78,107,91,169,218,120},{272,79,92,258,184,219,244,36,133,121,155,19,234,170,52,142},{245,65,4,53,156,185,220,122,273,108,20,143,80,207,134,259,195},{208,93,81,171,5,66,144,157,246,260,274,196},{68,38,209,248,55,135,158,222,6,186,262,22,173,236,110,82},{277,175,223,137,198,211,39,7,112,24,83,237,57,187,147},{79,81,75,84,88,76,80,83,78,87,86,85,77,82},{79,81,75,84,88,76,80,83,78,87,86,85,77,82},{99,150,190,162,252,226,280,61,265,10,27,86,213},{74,253,29,164,62,100,151,267,45,281,129,87,241,228,200},{283,31,229,63,269,88,202,13,102,47,153,140,130,255,214},{99,93,92,89,97,100,96,98,101,102,95,90,91,94},{99,93,92,89,97,100,96,98,101,102,95,90,91,94},{99,93,92,89,97,100,96,98,101,102,95,90,91,94},{272,79,92,258,184,219,244,36,133,121,155,19,234,170,52,142},{99,93,92,89,97,100,96,98,101,102,95,90,91,94},{99,93,92,89,97,100,96,98,101,102,95,90,91,94},{99,93,92,89,97,100,96,98,101,102,95,90,91,94},{99,93,92,89,97,100,96,98,101,102,95,90,91,94},{99,93,92,89,97,100,96,98,101,102,95,90,91,94},{99,93,92,89,97,100,96,98,101,102,95,90,91,94},{99,93,92,89,97,100,96,98,101,102,95,90,91,94},{74,253,29,164,62,100,151,267,45,281,129,87,241,228,200},{99,93,92,89,97,100,96,98,101,102,95,90,91,94},{99,93,92,89,97,100,96,98,101,102,95,90,91,94},{166,32,64,14,75,117,131,103,0,180,215,191,230,270,48},{192,141,203,89,216,33,49,242,15,104,231,167},{115,114,108,112,103,111,106,104,109,110,107,105,113,116},{205,233,243,17,257,50,106,182,168,90,217,119,77,2},{3,194,35,51,154,206,183,132,18,78,107,91,169,218,120},{245,65,4,53,156,185,220,122,273,108,20,143,80,207,134,259,195},{54,261,275,37,123,67,145,221,197,172,109,247,21,235},{68,38,209,248,55,135,158,222,6,186,262,22,173,236,110,82},{115,114,108,112,103,111,106,104,109,110,107,105,113,116},{277,175,223,137,198,211,39,7,112,24,83,237,57,187,147},{115,114,108,112,103,111,106,104,109,110,107,105,113,116},{59,148,239,114,42,97,126,71,251,161,225,212,264},{279,127,115,149,43,72,9,98,60,85,189},{115,114,108,112,103,111,106,104,109,110,107,105,113,116},{127,125,118,123,117,122,126,121,124,130,128,129,119,120},{127,125,118,123,117,122,126,121,124,130,128,129,119,120},{127,125,118,123,117,122,126,121,124,130,128,129,119,120},{127,125,118,123,117,122,126,121,124,130,128,129,119,120},{272,79,92,258,184,219,244,36,133,121,155,19,234,170,52,142},{245,65,4,53,156,185,220,122,273,108,20,143,80,207,134,259,195},{127,125,118,123,117,122,126,121,124,130,128,129,119,120},{127,125,118,123,117,122,126,121,124,130,128,129,119,120},{127,125,118,123,117,122,126,121,124,130,128,129,119,120},{127,125,118,123,117,122,126,121,124,130,128,129,119,120},{127,125,118,123,117,122,126,121,124,130,128,129,119,120},{127,125,118,123,117,122,126,121,124,130,128,129,119,120},{74,253,29,164,62,100,151,267,45,281,129,87,241,228,200},{283,31,229,63,269,88,202,13,102,47,153,140,130,255,214},{166,32,64,14,75,117,131,103,0,180,215,191,230,270,48},{3,194,35,51,154,206,183,132,18,78,107,91,169,218,120},{272,79,92,258,184,219,244,36,133,121,155,19,234,170,52,142},{245,65,4,53,156,185,220,122,273,108,20,143,80,207,134,259,195},{68,38,209,248,55,135,158,222,6,186,262,22,173,236,110,82},{210,159,174,136,249,23,111,146,276,56,94},{277,175,223,137,198,211,39,7,112,24,83,237,57,187,147},{238,69,176,84,138,124,58,95,40,224,199,278,8,25},{125,177,160,70,188,96,250,139,41,263,113,26},{283,31,229,63,269,88,202,13,102,47,153,140,130,255,214},{150,148,149,141,144,151,145,143,153,146,147,152,142},{272,79,92,258,184,219,244,36,133,121,155,19,234,170,52,142},{245,65,4,53,156,185,220,122,273,108,20,143,80,207,134,259,195},{208,93,81,171,5,66,144,157,246,260,274,196},{54,261,275,37,123,67,145,221,197,172,109,247,21,235},{150,148,149,141,144,151,145,143,153,146,147,152,142},{277,175,223,137,198,211,39,7,112,24,83,237,57,187,147},{59,148,239,114,42,97,126,71,251,161,225,212,264},{150,148,149,141,144,151,145,143,153,146,147,152,142},{99,150,190,162,252,226,280,61,265,10,27,86,213},{74,253,29,164,62,100,151,267,45,281,129,87,241,228,200},{150,148,149,141,144,151,145,143,153,146,147,152,142},{283,31,229,63,269,88,202,13,102,47,153,140,130,255,214},{3,194,35,51,154,206,183,132,18,78,107,91,169,218,120},{272,79,92,258,184,219,244,36,133,121,155,19,234,170,52,142},{245,65,4,53,156,185,220,122,273,108,20,143,80,207,134,259,195},{208,93,81,171,5,66,144,157,246,260,274,196},{68,38,209,248,55,135,158,222,6,186,262,22,173,236,110,82},{159,156,164,160,157,163,162,158,154,155,161,165},{159,156,164,160,157,163,162,158,154,155,161,165},{59,148,239,114,42,97,126,71,251,161,225,212,264},{99,150,190,162,252,226,280,61,265,10,27,86,213},{159,156,164,160,157,163,162,158,154,155,161,165},{74,253,29,164,62,100,151,267,45,281,129,87,241,228,200},{159,156,164,160,157,163,162,158,154,155,161,165},{166,175,171,177,174,178,176,173,168,172,179,170,167,169},{166,175,171,177,174,178,176,173,168,172,179,170,167,169},{166,175,171,177,174,178,176,173,168,172,179,170,167,169},{166,175,171,177,174,178,176,173,168,172,179,170,167,169},{272,79,92,258,184,219,244,36,133,121,155,19,234,170,52,142},{208,93,81,171,5,66,144,157,246,260,274,196},{166,175,171,177,174,178,176,173,168,172,179,170,167,169},{68,38,209,248,55,135,158,222,6,186,262,22,173,236,110,82},{166,175,171,177,174,178,176,173,168,172,179,170,167,169},{277,175,223,137,198,211,39,7,112,24,83,237,57,187,147},{166,175,171,177,174,178,176,173,168,172,179,170,167,169},{166,175,171,177,174,178,176,173,168,172,179,170,167,169},{166,175,171,177,174,178,176,173,168,172,179,170,167,169},{166,175,171,177,174,178,176,173,168,172,179,170,167,169},{166,32,64,14,75,117,131,103,0,180,215,191,230,270,48},{190,185,184,188,181,186,183,182,180,187,189},{205,233,243,17,257,50,106,182,168,90,217,119,77,2},{3,194,35,51,154,206,183,132,18,78,107,91,169,218,120},{272,79,92,258,184,219,244,36,133,121,155,19,234,170,52,142},{245,65,4,53,156,185,220,122,273,108,20,143,80,207,134,259,195},{68,38,209,248,55,135,158,222,6,186,262,22,173,236,110,82},{277,175,223,137,198,211,39,7,112,24,83,237,57,187,147},{125,177,160,70,188,96,250,139,41,263,113,26},{279,127,115,149,43,72,9,98,60,85,189},{99,150,190,162,252,226,280,61,265,10,27,86,213},{166,32,64,14,75,117,131,103,0,180,215,191,230,270,48},{192,141,203,89,216,33,49,242,15,104,231,167},{194,201,192,198,202,197,199,191,200,195,196,193},{3,194,35,51,154,206,183,132,18,78,107,91,169,218,120},{245,65,4,53,156,185,220,122,273,108,20,143,80,207,134,259,195},{208,93,81,171,5,66,144,157,246,260,274,196},{54,261,275,37,123,67,145,221,197,172,109,247,21,235},{277,175,223,137,198,211,39,7,112,24,83,237,57,187,147},{238,69,176,84,138,124,58,95,40,224,199,278,8,25},{74,253,29,164,62,100,151,267,45,281,129,87,241,228,200},{12,30,201,268,101,254,179,165,46,152,282,116},{283,31,229,63,269,88,202,13,102,47,153,140,130,255,214},{192,141,203,89,216,33,49,242,15,104,231,167},{205,208,210,209,203,211,206,207,204,213,212,214},{205,233,243,17,257,50,106,182,168,90,217,119,77,2},{3,194,35,51,154,206,183,132,18,78,107,91,169,218,120},{245,65,4,53,156,185,220,122,273,108,20,143,80,207,134,259,195},{208,93,81,171,5,66,144,157,246,260,274,196},{68,38,209,248,55,135,158,222,6,186,262,22,173,236,110,82},{205,208,210,209,203,211,206,207,204,213,212,214},{277,175,223,137,211,198,39,7,112,24,83,237,57,187,147},{59,148,239,114,42,97,126,71,251,161,225,212,264},{99,150,190,162,252,226,280,61,265,10,27,86,213},{283,31,229,63,269,88,202,13,102,47,153,140,130,255,214},{223,229,216,219,220,226,222,221,227,225,224,217,228,215,218},{223,229,216,219,220,226,222,221,227,225,224,217,228,215,218},{223,229,216,219,220,226,222,221,227,225,224,217,228,215,218},{223,229,216,219,220,226,222,221,227,225,224,217,228,215,218},{272,79,92,258,184,219,244,36,133,121,155,19,234,170,52,142},{245,65,4,53,156,185,220,122,273,108,20,143,80,207,134,259,195},{223,229,216,219,220,226,222,221,227,225,224,217,228,215,218},{68,38,209,248,55,135,158,222,6,186,262,22,173,236,110,82},{277,175,223,137,198,211,39,7,112,24,83,237,57,187,147},{223,229,216,219,220,226,222,221,227,225,224,217,228,215,218},{223,229,216,219,220,226,222,221,227,225,224,217,228,215,218},{223,229,216,219,220,226,222,221,227,225,224,217,228,215,218},{223,229,216,219,220,226,222,221,227,225,224,217,228,215,218},{74,253,29,164,62,100,151,267,45,281,129,87,241,228,200},{283,31,229,63,269,88,202,13,102,47,153,140,130,255,214},{166,32,64,14,75,117,131,103,0,180,215,191,230,270,48},{192,141,203,89,216,33,49,242,15,104,231,167},{256,118,181,76,271,1,204,105,16,232,34,193},{205,233,243,17,257,50,106,182,168,90,217,119,77,2},{272,79,92,258,184,219,244,36,133,121,155,19,234,170,52,142},{54,261,275,37,123,67,145,221,197,172,109,247,21,235},{68,38,209,248,55,135,158,222,6,186,262,22,173,236,110,82},{277,175,223,137,198,211,39,7,112,24,83,237,57,187,147},{238,69,176,84,138,124,58,95,40,224,199,278,8,25},{59,148,239,114,42,97,126,71,251,161,225,212,264},{233,239,238,231,234,237,240,241,236,232,235,230},{74,253,29,164,62,100,151,267,45,281,129,87,241,228,200},{245,253,248,243,244,249,252,242,246,250,254,251,247,255},{245,253,248,243,244,249,252,242,246,250,254,251,247,255},{272,79,92,258,184,219,244,36,133,121,155,19,234,170,52,142},{245,65,4,53,156,185,220,122,273,108,20,143,80,207,134,259,195},{245,253,248,243,244,249,252,242,246,250,254,251,247,255},{245,253,248,243,244,249,252,242,246,250,254,251,247,255},{68,38,209,248,55,135,158,222,6,186,262,22,173,236,110,82},{245,253,248,243,244,249,252,242,246,250,254,251,247,255},{245,253,248,243,244,249,252,242,246,250,254,251,247,255},{245,253,248,243,244,249,252,242,246,250,254,251,247,255},{245,253,248,243,244,249,252,242,246,250,254,251,247,255},{74,253,29,164,62,100,151,267,45,281,129,87,241,228,200},{245,253,248,243,244,249,252,242,246,250,254,251,247,255},{245,253,248,243,244,249,252,242,246,250,254,251,247,255},{261,256,258,257,260,268,269,267,262,265,263,259,264,266},{261,256,258,257,260,268,269,267,262,265,263,259,264,266},{272,79,92,258,184,219,244,36,133,121,155,19,234,170,52,142},{245,65,4,53,156,185,220,122,273,108,20,143,80,207,134,259,195},{208,93,81,171,5,66,144,157,246,260,274,196},{54,261,275,37,123,67,145,221,197,172,109,247,21,235},{68,38,209,248,55,135,158,222,6,186,262,22,173,236,110,82},{261,256,258,257,260,268,269,267,262,265,263,259,264,266},{59,148,239,114,42,97,126,71,251,161,225,212,264},{99,150,190,162,252,226,280,61,265,10,27,86,213},{261,256,258,257,260,268,269,267,262,265,263,259,264,266},{74,253,29,164,62,100,151,267,45,281,129,87,241,228,200},{261,256,258,257,260,268,269,267,262,265,263,259,264,266},{283,31,229,63,269,88,202,13,102,47,153,140,130,255,214},{279,272,283,277,275,273,271,280,281,274,276,278,282,270},{279,272,283,277,275,273,271,280,281,274,276,278,282,270},{272,79,92,258,184,219,244,36,133,121,155,19,234,170,52,142},{245,65,4,53,156,185,220,122,273,108,20,143,80,207,134,259,195},{279,272,283,277,275,273,271,280,281,274,276,278,282,270},{279,272,283,277,275,273,271,280,281,274,276,278,282,270},{279,272,283,277,275,273,271,280,281,274,276,278,282,270},{277,175,223,137,198,211,39,7,112,24,83,237,57,187,147},{279,272,283,277,275,273,271,280,281,274,276,278,282,270},{279,272,283,277,275,273,271,280,281,274,276,278,282,270},{279,272,283,277,275,273,271,280,281,274,276,278,282,270},{74,253,29,164,62,100,151,267,45,281,129,87,241,228,200},{279,272,283,277,275,273,271,280,281,274,276,278,282,270},{283,31,229,63,269,88,202,13,102,47,153,140,130,255,214}];
nr_cliques=284;
